011011001011010010101110111011010000100111000101000100010101110101100100000001011111100010111111100011110010111010010001110000000001010001101011000111100110001101000001101011001011110001100001111010111101011000100101110010011001111001101101111100011011011100101101001101111100001111010110111001000001110111000100100010101100111010101001010111100001011011100010100110001010010111101111